20	3	3
9	5	5	52	62	61	
0	0	0	0	5	5	4	4	9	5	11	2	3	4	5	6	7	8	10	13	16	19
17	4	2	2	8	5	8	2	4	6	1	17
17	4	2	2	5	1	6	2	5	7	2	17	11
17	2	2	2	5	4	6	5	4	9	1	20
17	2	2	2	5	6	5	7	4	2	1	20
19	3	2	2	3	9	7	6	2	5	2	9	12
5	4	2	2	1	10	9	9	1	3	1	14
14	4	2	2	5	6	4	10	7	8	1	20
10	4	2	2	7	2	2	2	7	6	1	20
6	2	2	2	10	2	1	5	8	4	2	12	15
10	2	2	2	6	10	3	3	6	4	1	18
15	2	2	2	7	6	3	6	4	4	1	20
7	2	2	2	8	8	9	1	8	6	1	17
7	2	2	2	9	4	7	1	5	4	1	20
8	4	2	2	6	5	5	7	10	3	1	20
12	5	2	2	10	6	2	2	8	7	1	20
15	2	2	2	6	4	3	9	10	6	1	20
17	2	2	2	2	8	4	1	8	1	1	20
13	2	2	2	7	7	5	4	8	10	1	20
0	0	0	0	7	4	5	2	10	4	0
